param n := 120;
param c := 150;
param : V : p w :=
   0	  36	  26
   1	  35	  25
   2	  77	  67
   3	  87	  77
   4	  77	  67
   5	  89	  79
   6	  57	  47
   7	  94	  84
   8	  60	  50
   9	  31	  21
  10	  97	  87
  11	  93	  83
  12	  54	  44
  13	  98	  88
  14	  88	  78
  15	  63	  53
  16	  88	  78
  17	  47	  37
  18	  57	  47
  19	  62	  52
  20	  42	  32
  21	  98	  88
  22	  95	  85
  23	  92	  82
  24	  65	  55
  25	  51	  41
  26	  70	  60
  27	  76	  66
  28	  88	  78
  29	  82	  72
  30	  44	  34
  31	  74	  64
  32	  30	  20
  33	  70	  60
  34	 110	 100
  35	  72	  62
  36	  90	  80
  37	  44	  34
  38	  78	  68
  39	  48	  38
  40	  42	  32
  41	  42	  32
  42	  47	  37
  43	  92	  82
  44	 108	  98
  45	 100	  90
  46	  68	  58
  47	 107	  97
  48	  66	  56
  49	  44	  34
  50	  80	  70
  51	  49	  39
  52	  66	  56
  53	  79	  69
  54	  46	  36
  55	  30	  20
  56	 109	  99
  57	  94	  84
  58	  63	  53
  59	  37	  27
  60	  98	  88
  61	  63	  53
  62	  52	  42
  63	  55	  45
  64	  52	  42
  65	  41	  31
  66	  64	  54
  67	  70	  60
  68	  65	  55
  69	  37	  27
  70	  46	  36
  71	  41	  31
  72	  49	  39
  73	 101	  91
  74	  55	  45
  75	 107	  97
  76	  36	  26
  77	  90	  80
  78	  51	  41
  79	  66	  56
  80	  80	  70
  81	 107	  97
  82	  58	  48
  83	  97	  87
  84	  33	  23
  85	  42	  32
  86	  85	  75
  87	 110	 100
  88	 107	  97
  89	  61	  51
  90	  88	  78
  91	  88	  78
  92	  31	  21
  93	  82	  72
  94	  82	  72
  95	  89	  79
  96	  56	  46
  97	  40	  30
  98	  58	  48
  99	  37	  27
 100	 105	  95
 101	  58	  48
 102	  77	  67
 103	  68	  58
 104	  56	  46
 105	 102	  92
 106	  31	  21
 107	  92	  82
 108	 101	  91
 109	  50	  40
 110	  66	  56
 111	  34	  24
 112	 104	  94
 113	  54	  44
 114	 101	  91
 115	 102	  92
 116	  91	  81
 117	  34	  24
 118	  94	  84
 119	  54	  44
;

set E :=
   0	   2
   0	   3
   0	   6
   0	   8
   0	   9
   0	  10
   0	  16
   0	  18
   0	  23
   0	  24
   0	  26
   0	  27
   0	  32
   0	  34
   0	  38
   0	  39
   0	  40
   0	  42
   0	  43
   0	  50
   0	  52
   0	  56
   0	  57
   0	  59
   0	  63
   0	  67
   0	  68
   0	  73
   0	  75
   0	  81
   0	  91
   0	  93
   0	  95
   0	  96
   0	 100
   0	 102
   0	 106
   0	 108
   0	 111
   0	 112
   0	 117
   0	 118
   0	 119
   1	   4
   1	   7
   1	   8
   1	   9
   1	  19
   1	  23
   1	  24
   1	  27
   1	  31
   1	  33
   1	  34
   1	  35
   1	  36
   1	  37
   1	  40
   1	  41
   1	  42
   1	  46
   1	  47
   1	  50
   1	  52
   1	  56
   1	  58
   1	  59
   1	  61
   1	  65
   1	  68
   1	  69
   1	  70
   1	  72
   1	  73
   1	  78
   1	  82
   1	  85
   1	  89
   1	  91
   1	  92
   1	  94
   1	 100
   1	 101
   1	 103
   1	 104
   1	 106
   1	 107
   1	 108
   1	 109
   1	 111
   1	 112
   1	 114
   1	 116
   1	 117
   1	 118
   2	   6
   2	  10
   2	  12
   2	  13
   2	  16
   2	  22
   2	  28
   2	  29
   2	  30
   2	  33
   2	  34
   2	  35
   2	  37
   2	  38
   2	  40
   2	  41
   2	  44
   2	  45
   2	  46
   2	  47
   2	  48
   2	  56
   2	  58
   2	  59
   2	  60
   2	  61
   2	  62
   2	  66
   2	  69
   2	  71
   2	  73
   2	  74
   2	  78
   2	  81
   2	  86
   2	  88
   2	  93
   2	  98
   2	 102
   2	 103
   2	 106
   2	 110
   2	 112
   2	 113
   3	   5
   3	   6
   3	  11
   3	  13
   3	  17
   3	  19
   3	  21
   3	  22
   3	  23
   3	  24
   3	  27
   3	  28
   3	  29
   3	  32
   3	  33
   3	  35
   3	  37
   3	  38
   3	  39
   3	  42
   3	  45
   3	  47
   3	  48
   3	  50
   3	  51
   3	  56
   3	  58
   3	  61
   3	  67
   3	  77
   3	  78
   3	  79
   3	  81
   3	  85
   3	  88
   3	  89
   3	  90
   3	  91
   3	  92
   3	  93
   3	  97
   3	 100
   3	 102
   3	 105
   3	 107
   3	 110
   3	 111
   3	 113
   3	 115
   3	 117
   4	   6
   4	  10
   4	  12
   4	  14
   4	  16
   4	  20
   4	  23
   4	  28
   4	  29
   4	  32
   4	  33
   4	  34
   4	  35
   4	  39
   4	  41
   4	  43
   4	  44
   4	  45
   4	  46
   4	  49
   4	  51
   4	  52
   4	  53
   4	  57
   4	  64
   4	  65
   4	  66
   4	  67
   4	  69
   4	  72
   4	  79
   4	  80
   4	  81
   4	  84
   4	  88
   4	  91
   4	  92
   4	  95
   4	  99
   4	 100
   4	 106
   4	 107
   4	 108
   4	 109
   4	 110
   4	 111
   4	 113
   4	 115
   4	 116
   4	 117
   5	   6
   5	   9
   5	  10
   5	  12
   5	  16
   5	  18
   5	  22
   5	  23
   5	  25
   5	  26
   5	  27
   5	  29
   5	  31
   5	  32
   5	  33
   5	  36
   5	  39
   5	  44
   5	  46
   5	  52
   5	  56
   5	  57
   5	  60
   5	  64
   5	  66
   5	  67
   5	  70
   5	  74
   5	  80
   5	  83
   5	  84
   5	  85
   5	  86
   5	  88
   5	  89
   5	  90
   5	  92
   5	  96
   5	 101
   5	 103
   5	 104
   5	 108
   5	 109
   5	 110
   5	 111
   5	 113
   5	 114
   5	 116
   5	 117
   5	 119
   6	   8
   6	  14
   6	  19
   6	  20
   6	  21
   6	  25
   6	  26
   6	  27
   6	  28
   6	  30
   6	  32
   6	  34
   6	  42
   6	  43
   6	  44
   6	  45
   6	  50
   6	  51
   6	  52
   6	  54
   6	  57
   6	  62
   6	  66
   6	  68
   6	  72
   6	  73
   6	  78
   6	  81
   6	  83
   6	  86
   6	  91
   6	  93
   6	  94
   6	  96
   6	 102
   6	 104
   6	 105
   6	 114
   6	 115
   6	 118
   7	   8
   7	  12
   7	  13
   7	  15
   7	  17
   7	  18
   7	  20
   7	  22
   7	  27
   7	  28
   7	  29
   7	  30
   7	  32
   7	  33
   7	  35
   7	  36
   7	  38
   7	  41
   7	  44
   7	  46
   7	  49
   7	  50
   7	  54
   7	  56
   7	  57
   7	  62
   7	  66
   7	  72
   7	  73
   7	  77
   7	  78
   7	  80
   7	  81
   7	  86
   7	  87
   7	  88
   7	  91
   7	  92
   7	  94
   7	  96
   7	  97
   7	 105
   7	 111
   7	 112
   7	 116
   8	   9
   8	  12
   8	  14
   8	  17
   8	  19
   8	  20
   8	  21
   8	  25
   8	  26
   8	  27
   8	  28
   8	  30
   8	  31
   8	  35
   8	  37
   8	  39
   8	  42
   8	  43
   8	  45
   8	  46
   8	  48
   8	  51
   8	  52
   8	  54
   8	  56
   8	  60
   8	  63
   8	  66
   8	  67
   8	  68
   8	  69
   8	  73
   8	  74
   8	  76
   8	  78
   8	  80
   8	  90
   8	  91
   8	  95
   8	  96
   8	  97
   8	  98
   8	 100
   8	 102
   8	 104
   8	 106
   8	 107
   8	 111
   8	 115
   8	 117
   8	 118
   9	  10
   9	  12
   9	  17
   9	  23
   9	  27
   9	  44
   9	  46
   9	  47
   9	  49
   9	  51
   9	  53
   9	  57
   9	  61
   9	  66
   9	  71
   9	  74
   9	  76
   9	  78
   9	  80
   9	  82
   9	  84
   9	  88
   9	  90
   9	  94
   9	  95
   9	  98
   9	 104
   9	 107
   9	 108
   9	 114
   9	 118
  10	  12
  10	  13
  10	  16
  10	  20
  10	  21
  10	  22
  10	  27
  10	  28
  10	  32
  10	  34
  10	  35
  10	  39
  10	  40
  10	  41
  10	  48
  10	  50
  10	  53
  10	  60
  10	  61
  10	  65
  10	  68
  10	  72
  10	  73
  10	  75
  10	  79
  10	  80
  10	  81
  10	  87
  10	  93
  10	  94
  10	  98
  10	 100
  10	 104
  10	 105
  10	 106
  10	 108
  10	 112
  10	 119
  11	  12
  11	  13
  11	  15
  11	  16
  11	  17
  11	  21
  11	  23
  11	  26
  11	  27
  11	  29
  11	  32
  11	  35
  11	  37
  11	  39
  11	  42
  11	  44
  11	  47
  11	  51
  11	  56
  11	  57
  11	  60
  11	  63
  11	  65
  11	  66
  11	  67
  11	  70
  11	  71
  11	  72
  11	  73
  11	  74
  11	  77
  11	  79
  11	  80
  11	  81
  11	  88
  11	  90
  11	  91
  11	  94
  11	  95
  11	  96
  11	  98
  11	 104
  11	 105
  11	 106
  11	 110
  11	 112
  11	 113
  11	 115
  11	 116
  11	 117
  11	 118
  11	 119
  12	  13
  12	  16
  12	  17
  12	  24
  12	  30
  12	  32
  12	  34
  12	  36
  12	  37
  12	  40
  12	  41
  12	  42
  12	  43
  12	  44
  12	  49
  12	  50
  12	  51
  12	  52
  12	  55
  12	  57
  12	  58
  12	  62
  12	  64
  12	  65
  12	  71
  12	  74
  12	  80
  12	  81
  12	  82
  12	  84
  12	  85
  12	  86
  12	  87
  12	  92
  12	  94
  12	  95
  12	  96
  12	  97
  12	  98
  12	  99
  12	 101
  12	 107
  12	 108
  12	 109
  12	 114
  12	 115
  12	 116
  12	 118
  13	  14
  13	  15
  13	  21
  13	  23
  13	  25
  13	  28
  13	  31
  13	  33
  13	  34
  13	  37
  13	  39
  13	  42
  13	  47
  13	  49
  13	  50
  13	  52
  13	  53
  13	  55
  13	  57
  13	  58
  13	  61
  13	  66
  13	  72
  13	  73
  13	  77
  13	  78
  13	  80
  13	  83
  13	  87
  13	  88
  13	  90
  13	  91
  13	  92
  13	  94
  13	  96
  13	  99
  13	 100
  13	 101
  13	 102
  13	 105
  13	 106
  13	 107
  13	 108
  13	 110
  13	 111
  13	 112
  13	 113
  13	 115
  13	 116
  14	  15
  14	  16
  14	  18
  14	  22
  14	  24
  14	  25
  14	  28
  14	  31
  14	  37
  14	  39
  14	  42
  14	  45
  14	  48
  14	  49
  14	  55
  14	  56
  14	  59
  14	  63
  14	  65
  14	  68
  14	  72
  14	  76
  14	  82
  14	  86
  14	  87
  14	  89
  14	  91
  14	  97
  14	  99
  14	 102
  14	 103
  14	 104
  14	 107
  14	 110
  14	 111
  14	 113
  14	 119
  15	  19
  15	  22
  15	  23
  15	  24
  15	  25
  15	  28
  15	  29
  15	  33
  15	  34
  15	  38
  15	  39
  15	  40
  15	  42
  15	  43
  15	  47
  15	  51
  15	  52
  15	  57
  15	  58
  15	  63
  15	  69
  15	  70
  15	  71
  15	  72
  15	  80
  15	  81
  15	  83
  15	  86
  15	  87
  15	  89
  15	  91
  15	  92
  15	  95
  15	  96
  15	  97
  15	 100
  15	 103
  15	 105
  15	 108
  15	 109
  15	 110
  15	 112
  16	  17
  16	  19
  16	  26
  16	  29
  16	  30
  16	  34
  16	  40
  16	  42
  16	  44
  16	  48
  16	  49
  16	  53
  16	  55
  16	  59
  16	  63
  16	  65
  16	  69
  16	  70
  16	  73
  16	  74
  16	  78
  16	  80
  16	  82
  16	  84
  16	  85
  16	  86
  16	  90
  16	  93
  16	  97
  16	  98
  16	 106
  16	 108
  16	 110
  16	 112
  16	 114
  16	 115
  16	 116
  16	 117
  17	  19
  17	  20
  17	  25
  17	  27
  17	  28
  17	  36
  17	  37
  17	  39
  17	  45
  17	  48
  17	  49
  17	  52
  17	  53
  17	  54
  17	  55
  17	  58
  17	  59
  17	  65
  17	  68
  17	  69
  17	  72
  17	  73
  17	  77
  17	  81
  17	  82
  17	  83
  17	  85
  17	  86
  17	  87
  17	  89
  17	  91
  17	  93
  17	  94
  17	  96
  17	  98
  17	  99
  17	 100
  17	 101
  17	 103
  17	 105
  17	 108
  17	 110
  17	 111
  17	 116
  17	 118
  17	 119
  18	  20
  18	  22
  18	  24
  18	  34
  18	  35
  18	  38
  18	  39
  18	  44
  18	  45
  18	  46
  18	  47
  18	  52
  18	  53
  18	  55
  18	  56
  18	  57
  18	  60
  18	  62
  18	  65
  18	  67
  18	  70
  18	  71
  18	  72
  18	  74
  18	  75
  18	  77
  18	  80
  18	  81
  18	  83
  18	  89
  18	  91
  18	  94
  18	  95
  18	  98
  18	  99
  18	 100
  18	 101
  18	 102
  18	 106
  18	 107
  18	 109
  18	 110
  18	 112
  18	 117
  18	 119
  19	  20
  19	  21
  19	  22
  19	  23
  19	  24
  19	  25
  19	  26
  19	  27
  19	  29
  19	  32
  19	  33
  19	  37
  19	  39
  19	  41
  19	  48
  19	  53
  19	  54
  19	  55
  19	  61
  19	  62
  19	  63
  19	  65
  19	  69
  19	  70
  19	  71
  19	  74
  19	  76
  19	  77
  19	  78
  19	  79
  19	  81
  19	  84
  19	  85
  19	  88
  19	  89
  19	  90
  19	  91
  19	  92
  19	 101
  19	 104
  19	 105
  19	 106
  19	 111
  19	 113
  19	 117
  20	  21
  20	  22
  20	  25
  20	  26
  20	  27
  20	  28
  20	  34
  20	  35
  20	  37
  20	  40
  20	  41
  20	  44
  20	  48
  20	  50
  20	  53
  20	  54
  20	  56
  20	  60
  20	  61
  20	  62
  20	  64
  20	  65
  20	  66
  20	  67
  20	  69
  20	  73
  20	  75
  20	  79
  20	  80
  20	  81
  20	  86
  20	  91
  20	  92
  20	  93
  20	  94
  20	  95
  20	  96
  20	  97
  20	  98
  20	 103
  20	 108
  20	 110
  20	 111
  20	 113
  20	 114
  20	 116
  20	 117
  20	 118
  20	 119
  21	  22
  21	  23
  21	  24
  21	  27
  21	  32
  21	  36
  21	  39
  21	  43
  21	  47
  21	  48
  21	  51
  21	  52
  21	  55
  21	  56
  21	  58
  21	  60
  21	  61
  21	  64
  21	  65
  21	  66
  21	  70
  21	  72
  21	  73
  21	  76
  21	  79
  21	  81
  21	  82
  21	  83
  21	  85
  21	  88
  21	  92
  21	  93
  21	  94
  21	  98
  21	 103
  21	 104
  21	 108
  21	 110
  21	 111
  21	 113
  22	  28
  22	  29
  22	  30
  22	  33
  22	  34
  22	  35
  22	  37
  22	  38
  22	  40
  22	  42
  22	  47
  22	  58
  22	  59
  22	  60
  22	  61
  22	  63
  22	  64
  22	  65
  22	  66
  22	  67
  22	  72
  22	  75
  22	  76
  22	  80
  22	  82
  22	  84
  22	  88
  22	  90
  22	  91
  22	  94
  22	  97
  22	  99
  22	 102
  22	 103
  22	 105
  22	 113
  22	 116
  23	  24
  23	  25
  23	  27
  23	  28
  23	  29
  23	  30
  23	  33
  23	  35
  23	  36
  23	  38
  23	  43
  23	  45
  23	  46
  23	  47
  23	  52
  23	  53
  23	  55
  23	  62
  23	  73
  23	  74
  23	  78
  23	  81
  23	  82
  23	  85
  23	  88
  23	  89
  23	  90
  23	  92
  23	  94
  23	  95
  23	  96
  23	 106
  23	 108
  23	 112
  23	 117
  23	 118
  24	  27
  24	  32
  24	  43
  24	  45
  24	  52
  24	  56
  24	  57
  24	  60
  24	  63
  24	  67
  24	  68
  24	  70
  24	  71
  24	  72
  24	  74
  24	  77
  24	  81
  24	  82
  24	  83
  24	  88
  24	  94
  24	  95
  24	  96
  24	  97
  24	  98
  24	 102
  24	 104
  24	 106
  24	 118
  24	 119
  25	  29
  25	  32
  25	  33
  25	  36
  25	  41
  25	  42
  25	  43
  25	  46
  25	  48
  25	  50
  25	  51
  25	  53
  25	  54
  25	  55
  25	  56
  25	  57
  25	  59
  25	  61
  25	  65
  25	  67
  25	  72
  25	  73
  25	  74
  25	  75
  25	  76
  25	  79
  25	  82
  25	  83
  25	  86
  25	  89
  25	  90
  25	  91
  25	  96
  25	  98
  25	 100
  25	 102
  25	 103
  25	 108
  25	 111
  25	 115
  25	 118
  25	 119
  26	  30
  26	  31
  26	  35
  26	  37
  26	  42
  26	  45
  26	  46
  26	  49
  26	  56
  26	  59
  26	  62
  26	  65
  26	  67
  26	  71
  26	  72
  26	  74
  26	  75
  26	  79
  26	  80
  26	  81
  26	  82
  26	  88
  26	  89
  26	  92
  26	  95
  26	  99
  26	 100
  26	 101
  26	 103
  26	 106
  26	 108
  26	 109
  26	 111
  26	 112
  26	 114
  26	 116
  26	 119
  27	  29
  27	  30
  27	  31
  27	  33
  27	  34
  27	  39
  27	  44
  27	  45
  27	  46
  27	  47
  27	  49
  27	  51
  27	  52
  27	  55
  27	  56
  27	  57
  27	  59
  27	  60
  27	  61
  27	  63
  27	  64
  27	  65
  27	  70
  27	  74
  27	  78
  27	  80
  27	  82
  27	  89
  27	  91
  27	  92
  27	  93
  27	  98
  27	 100
  27	 101
  27	 102
  27	 103
  27	 105
  27	 108
  27	 111
  27	 117
  28	  31
  28	  34
  28	  35
  28	  38
  28	  41
  28	  42
  28	  64
  28	  66
  28	  72
  28	  73
  28	  74
  28	  80
  28	  81
  28	  82
  28	  83
  28	  84
  28	  90
  28	  95
  28	  97
  28	  99
  28	 102
  28	 105
  28	 111
  28	 112
  28	 116
  28	 118
  29	  32
  29	  33
  29	  34
  29	  35
  29	  36
  29	  37
  29	  39
  29	  40
  29	  47
  29	  51
  29	  55
  29	  58
  29	  59
  29	  63
  29	  64
  29	  66
  29	  68
  29	  72
  29	  75
  29	  76
  29	  78
  29	  80
  29	  82
  29	  84
  29	  85
  29	  87
  29	  90
  29	  91
  29	  92
  29	  95
  29	  96
  29	  97
  29	  99
  29	 100
  29	 102
  29	 103
  29	 106
  29	 108
  29	 109
  29	 113
  29	 114
  29	 116
  29	 119
  30	  33
  30	  34
  30	  37
  30	  38
  30	  45
  30	  46
  30	  47
  30	  48
  30	  49
  30	  51
  30	  52
  30	  53
  30	  58
  30	  60
  30	  61
  30	  66
  30	  69
  30	  70
  30	  73
  30	  76
  30	  79
  30	  81
  30	  82
  30	  85
  30	  89
  30	  92
  30	  93
  30	  96
  30	 108
  30	 110
  30	 112
  30	 114
  30	 115
  30	 118
  30	 119
  31	  33
  31	  34
  31	  37
  31	  41
  31	  42
  31	  43
  31	  47
  31	  52
  31	  53
  31	  54
  31	  55
  31	  58
  31	  59
  31	  60
  31	  63
  31	  64
  31	  65
  31	  66
  31	  67
  31	  68
  31	  70
  31	  71
  31	  77
  31	  78
  31	  81
  31	  88
  31	  90
  31	  94
  31	  95
  31	  96
  31	  97
  31	 100
  31	 102
  31	 105
  31	 107
  31	 108
  31	 113
  31	 114
  31	 116
  31	 117
  31	 119
  32	  33
  32	  34
  32	  36
  32	  38
  32	  41
  32	  42
  32	  48
  32	  50
  32	  51
  32	  55
  32	  57
  32	  58
  32	  59
  32	  60
  32	  62
  32	  63
  32	  64
  32	  70
  32	  72
  32	  77
  32	  79
  32	  91
  32	  92
  32	  94
  32	  96
  32	  97
  32	  98
  32	 100
  32	 107
  32	 111
  32	 113
  32	 114
  32	 118
  33	  35
  33	  37
  33	  38
  33	  40
  33	  45
  33	  46
  33	  48
  33	  50
  33	  51
  33	  54
  33	  57
  33	  58
  33	  68
  33	  71
  33	  75
  33	  78
  33	  79
  33	  83
  33	  87
  33	  88
  33	  89
  33	  91
  33	  94
  33	  96
  33	  98
  33	  99
  33	 103
  33	 105
  33	 110
  33	 111
  33	 113
  33	 114
  33	 116
  33	 118
  33	 119
  34	  37
  34	  38
  34	  39
  34	  40
  34	  45
  34	  46
  34	  49
  34	  53
  34	  55
  34	  56
  34	  59
  34	  61
  34	  64
  34	  65
  34	  68
  34	  70
  34	  71
  34	  72
  34	  76
  34	  79
  34	  80
  34	  82
  34	  87
  34	  89
  34	  90
  34	  94
  34	  95
  34	  98
  34	  99
  34	 105
  34	 108
  34	 110
  34	 111
  34	 118
  35	  38
  35	  39
  35	  42
  35	  43
  35	  48
  35	  49
  35	  53
  35	  54
  35	  55
  35	  56
  35	  59
  35	  62
  35	  64
  35	  67
  35	  69
  35	  70
  35	  71
  35	  73
  35	  76
  35	  77
  35	  81
  35	  84
  35	  85
  35	  88
  35	  94
  35	  95
  35	  98
  35	 101
  35	 103
  35	 104
  35	 106
  35	 108
  35	 112
  35	 115
  35	 116
  35	 119
  36	  40
  36	  41
  36	  43
  36	  45
  36	  46
  36	  47
  36	  50
  36	  56
  36	  57
  36	  63
  36	  66
  36	  70
  36	  71
  36	  77
  36	  78
  36	  79
  36	  82
  36	  83
  36	  84
  36	  87
  36	  88
  36	  89
  36	  91
  36	  95
  36	  96
  36	 100
  36	 102
  36	 106
  36	 107
  36	 114
  36	 115
  36	 116
  36	 117
  37	  40
  37	  42
  37	  43
  37	  44
  37	  50
  37	  53
  37	  55
  37	  60
  37	  62
  37	  64
  37	  65
  37	  72
  37	  76
  37	  80
  37	  82
  37	  84
  37	  93
  37	  95
  37	  98
  37	  99
  37	 104
  37	 106
  37	 107
  37	 114
  37	 115
  37	 116
  37	 117
  38	  40
  38	  41
  38	  43
  38	  47
  38	  49
  38	  51
  38	  52
  38	  55
  38	  66
  38	  67
  38	  72
  38	  74
  38	  78
  38	  80
  38	  82
  38	  84
  38	  85
  38	  86
  38	  91
  38	  93
  38	  95
  38	  96
  38	 102
  38	 103
  38	 105
  38	 106
  38	 113
  38	 114
  38	 116
  38	 118
  38	 119
  39	  42
  39	  44
  39	  45
  39	  48
  39	  49
  39	  50
  39	  52
  39	  56
  39	  59
  39	  61
  39	  64
  39	  65
  39	  67
  39	  70
  39	  71
  39	  72
  39	  75
  39	  84
  39	  86
  39	  88
  39	  90
  39	  91
  39	  93
  39	  97
  39	  99
  39	 102
  39	 105
  39	 107
  39	 108
  39	 110
  39	 112
  39	 114
  39	 117
  39	 119
  40	  41
  40	  42
  40	  43
  40	  44
  40	  46
  40	  49
  40	  51
  40	  52
  40	  54
  40	  57
  40	  60
  40	  61
  40	  64
  40	  66
  40	  67
  40	  72
  40	  75
  40	  77
  40	  78
  40	  79
  40	  84
  40	  85
  40	  89
  40	  92
  40	  94
  40	  96
  40	  98
  40	 103
  40	 107
  40	 114
  40	 115
  40	 118
  40	 119
  41	  42
  41	  46
  41	  50
  41	  51
  41	  53
  41	  54
  41	  55
  41	  57
  41	  61
  41	  62
  41	  68
  41	  71
  41	  73
  41	  80
  41	  87
  41	  90
  41	  92
  41	  93
  41	  94
  41	  95
  41	  96
  41	  99
  41	 102
  41	 103
  41	 110
  41	 111
  41	 112
  41	 113
  41	 115
  41	 116
  41	 117
  42	  44
  42	  46
  42	  47
  42	  48
  42	  50
  42	  54
  42	  55
  42	  59
  42	  60
  42	  62
  42	  63
  42	  65
  42	  66
  42	  67
  42	  69
  42	  72
  42	  73
  42	  84
  42	  85
  42	  88
  42	  91
  42	  95
  42	  98
  42	  99
  42	 100
  42	 101
  42	 102
  42	 103
  42	 105
  42	 106
  42	 108
  42	 111
  42	 119
  43	  45
  43	  48
  43	  49
  43	  50
  43	  53
  43	  55
  43	  56
  43	  57
  43	  58
  43	  60
  43	  62
  43	  63
  43	  66
  43	  71
  43	  72
  43	  74
  43	  76
  43	  81
  43	  83
  43	  84
  43	  87
  43	  91
  43	  94
  43	  97
  43	  98
  43	 100
  43	 102
  43	 104
  43	 105
  43	 106
  43	 114
  43	 115
  43	 116
  44	  46
  44	  48
  44	  51
  44	  52
  44	  59
  44	  60
  44	  62
  44	  63
  44	  64
  44	  65
  44	  71
  44	  72
  44	  74
  44	  75
  44	  80
  44	  81
  44	  82
  44	  86
  44	  88
  44	  91
  44	  93
  44	  94
  44	  95
  44	 100
  44	 109
  44	 112
  44	 113
  44	 117
  44	 118
  44	 119
  45	  47
  45	  49
  45	  51
  45	  52
  45	  54
  45	  55
  45	  56
  45	  58
  45	  60
  45	  67
  45	  70
  45	  72
  45	  73
  45	  74
  45	  78
  45	  82
  45	  83
  45	  84
  45	  85
  45	  88
  45	  90
  45	  94
  45	  96
  45	  98
  45	  99
  45	 100
  45	 102
  45	 104
  45	 106
  45	 109
  45	 110
  45	 114
  45	 115
  45	 119
  46	  53
  46	  56
  46	  60
  46	  63
  46	  66
  46	  68
  46	  69
  46	  70
  46	  71
  46	  76
  46	  79
  46	  81
  46	  84
  46	  85
  46	  87
  46	  90
  46	  92
  46	  93
  46	  95
  46	 105
  46	 106
  46	 111
  46	 116
  46	 117
  46	 119
  47	  48
  47	  49
  47	  51
  47	  59
  47	  60
  47	  63
  47	  64
  47	  67
  47	  68
  47	  69
  47	  70
  47	  72
  47	  75
  47	  78
  47	  80
  47	  81
  47	  84
  47	  89
  47	  93
  47	  94
  47	  95
  47	  97
  47	  99
  47	 100
  47	 105
  47	 106
  47	 107
  47	 110
  47	 114
  47	 115
  47	 116
  47	 118
  48	  50
  48	  51
  48	  52
  48	  54
  48	  56
  48	  57
  48	  62
  48	  64
  48	  66
  48	  71
  48	  72
  48	  74
  48	  75
  48	  76
  48	  78
  48	  80
  48	  82
  48	  85
  48	  87
  48	  88
  48	  92
  48	  93
  48	  94
  48	  99
  48	 103
  48	 105
  48	 108
  48	 109
  48	 110
  48	 112
  48	 113
  48	 116
  49	  52
  49	  59
  49	  61
  49	  65
  49	  68
  49	  69
  49	  73
  49	  76
  49	  77
  49	  80
  49	  85
  49	  86
  49	  89
  49	  90
  49	  91
  49	  92
  49	  95
  49	  97
  49	  98
  49	 100
  49	 104
  49	 110
  49	 116
  49	 117
  50	  52
  50	  54
  50	  55
  50	  60
  50	  62
  50	  65
  50	  76
  50	  80
  50	  85
  50	  86
  50	  88
  50	  89
  50	  93
  50	  97
  50	 100
  50	 101
  50	 103
  50	 107
  50	 108
  50	 109
  50	 110
  50	 113
  50	 114
  50	 115
  50	 119
  51	  52
  51	  58
  51	  59
  51	  61
  51	  65
  51	  66
  51	  68
  51	  81
  51	  82
  51	  85
  51	  88
  51	  90
  51	  91
  51	  96
  51	 102
  51	 105
  51	 107
  51	 109
  51	 114
  51	 115
  52	  54
  52	  55
  52	  59
  52	  61
  52	  65
  52	  66
  52	  75
  52	  77
  52	  79
  52	  80
  52	  81
  52	  82
  52	  86
  52	  88
  52	  90
  52	  91
  52	  92
  52	  93
  52	  94
  52	  95
  52	  98
  52	 100
  52	 101
  52	 104
  52	 105
  52	 106
  52	 107
  52	 108
  52	 115
  53	  54
  53	  55
  53	  57
  53	  58
  53	  64
  53	  65
  53	  68
  53	  74
  53	  75
  53	  76
  53	  77
  53	  80
  53	  81
  53	  83
  53	  91
  53	  93
  53	  94
  53	  95
  53	  99
  53	 101
  53	 103
  53	 106
  53	 108
  53	 111
  53	 112
  53	 114
  53	 116
  53	 118
  54	  56
  54	  58
  54	  59
  54	  60
  54	  61
  54	  66
  54	  69
  54	  73
  54	  75
  54	  77
  54	  80
  54	  82
  54	  85
  54	  86
  54	  91
  54	  96
  54	 102
  54	 103
  54	 106
  54	 110
  54	 114
  54	 115
  54	 119
  55	  56
  55	  59
  55	  60
  55	  67
  55	  68
  55	  74
  55	  75
  55	  80
  55	  81
  55	  83
  55	  86
  55	  87
  55	  88
  55	  92
  55	  93
  55	  96
  55	  97
  55	  98
  55	  99
  55	 101
  55	 107
  55	 108
  55	 110
  55	 111
  55	 113
  55	 116
  55	 117
  55	 119
  56	  57
  56	  58
  56	  62
  56	  63
  56	  64
  56	  65
  56	  66
  56	  68
  56	  69
  56	  70
  56	  73
  56	  74
  56	  76
  56	  78
  56	  79
  56	  82
  56	  87
  56	  88
  56	  90
  56	  92
  56	  93
  56	  97
  56	  99
  56	 102
  56	 103
  56	 105
  56	 107
  56	 108
  56	 111
  56	 114
  56	 116
  56	 118
  56	 119
  57	  64
  57	  67
  57	  70
  57	  71
  57	  72
  57	  75
  57	  77
  57	  80
  57	  81
  57	  82
  57	  83
  57	  84
  57	  85
  57	  86
  57	  93
  57	  99
  57	 105
  57	 108
  57	 110
  57	 113
  57	 115
  57	 118
  58	  59
  58	  61
  58	  68
  58	  69
  58	  70
  58	  74
  58	  76
  58	  78
  58	  79
  58	  85
  58	  87
  58	  88
  58	  90
  58	  92
  58	  93
  58	  98
  58	 101
  58	 107
  58	 108
  58	 111
  58	 116
  58	 119
  59	  60
  59	  61
  59	  66
  59	  70
  59	  72
  59	  73
  59	  80
  59	  84
  59	  85
  59	  94
  59	  96
  59	 103
  59	 109
  59	 110
  59	 111
  59	 113
  59	 114
  59	 115
  59	 116
  59	 117
  59	 118
  60	  63
  60	  65
  60	  69
  60	  73
  60	  77
  60	  80
  60	  86
  60	  87
  60	  90
  60	  95
  60	  98
  60	 101
  60	 102
  60	 103
  60	 106
  60	 107
  60	 109
  60	 111
  60	 115
  60	 117
  61	  62
  61	  63
  61	  65
  61	  68
  61	  71
  61	  76
  61	  77
  61	  78
  61	  79
  61	  80
  61	  85
  61	  88
  61	  90
  61	  91
  61	  97
  61	  98
  61	  99
  61	 106
  61	 107
  61	 109
  61	 111
  61	 112
  61	 117
  62	  63
  62	  67
  62	  69
  62	  70
  62	  71
  62	  76
  62	  81
  62	  85
  62	  88
  62	  90
  62	  91
  62	  96
  62	 100
  62	 109
  62	 116
  62	 117
  62	 118
  63	  64
  63	  65
  63	  70
  63	  72
  63	  76
  63	  77
  63	  80
  63	  81
  63	  86
  63	  88
  63	  92
  63	  94
  63	  98
  63	 100
  63	 105
  63	 107
  63	 109
  63	 111
  63	 118
  63	 119
  64	  65
  64	  67
  64	  72
  64	  74
  64	  75
  64	  80
  64	  81
  64	  82
  64	  85
  64	  89
  64	  90
  64	  92
  64	  95
  64	  98
  64	  99
  64	 101
  64	 106
  64	 107
  64	 110
  64	 112
  64	 113
  64	 117
  64	 118
  65	  66
  65	  67
  65	  71
  65	  74
  65	  76
  65	  82
  65	  83
  65	  84
  65	  85
  65	  87
  65	  89
  65	  90
  65	  91
  65	  93
  65	  96
  65	  98
  65	  99
  65	 100
  65	 101
  65	 104
  65	 109
  65	 111
  65	 112
  65	 114
  65	 118
  66	  70
  66	  72
  66	  74
  66	  81
  66	  86
  66	  91
  66	  92
  66	  98
  66	  99
  66	 101
  66	 102
  66	 104
  66	 105
  66	 107
  66	 108
  66	 109
  66	 110
  66	 113
  66	 119
  67	  68
  67	  69
  67	  70
  67	  73
  67	  74
  67	  77
  67	  79
  67	  80
  67	  86
  67	  87
  67	  88
  67	  90
  67	  93
  67	  96
  67	 102
  67	 103
  67	 104
  67	 105
  67	 109
  67	 114
  67	 115
  68	  69
  68	  73
  68	  77
  68	  79
  68	  80
  68	  81
  68	  82
  68	  83
  68	  84
  68	  85
  68	  86
  68	  87
  68	  92
  68	  93
  68	  94
  68	  95
  68	  96
  68	  97
  68	  99
  68	 103
  68	 105
  68	 108
  68	 109
  68	 112
  68	 113
  69	  70
  69	  74
  69	  75
  69	  77
  69	  90
  69	  92
  69	  93
  69	  96
  69	  98
  69	  99
  69	 100
  69	 103
  69	 104
  69	 111
  69	 116
  69	 117
  70	  78
  70	  80
  70	  82
  70	  84
  70	  85
  70	  86
  70	  87
  70	  88
  70	  89
  70	  92
  70	  94
  70	  96
  70	  97
  70	 101
  70	 105
  70	 109
  70	 110
  70	 112
  70	 115
  70	 116
  70	 117
  70	 118
  71	  73
  71	  76
  71	  77
  71	  78
  71	  79
  71	  80
  71	  83
  71	  84
  71	  86
  71	  88
  71	  89
  71	  90
  71	  94
  71	  95
  71	  98
  71	 102
  71	 106
  71	 108
  71	 110
  71	 112
  71	 113
  71	 117
  71	 119
  72	  82
  72	  86
  72	  87
  72	  88
  72	  92
  72	  94
  72	  95
  72	  96
  72	  97
  72	  98
  72	 101
  72	 102
  72	 104
  72	 105
  72	 109
  72	 114
  72	 117
  73	  75
  73	  76
  73	  77
  73	  78
  73	  85
  73	  86
  73	  91
  73	  93
  73	  98
  73	 101
  73	 103
  73	 107
  73	 111
  73	 116
  73	 118
  74	  75
  74	  77
  74	  78
  74	  82
  74	  83
  74	  86
  74	  87
  74	  88
  74	  92
  74	  93
  74	  95
  74	 101
  74	 102
  74	 104
  74	 106
  74	 112
  74	 113
  74	 115
  75	  76
  75	  77
  75	  78
  75	  79
  75	  87
  75	  88
  75	  90
  75	  92
  75	  93
  75	  95
  75	  98
  75	 101
  75	 104
  75	 106
  75	 109
  75	 112
  75	 115
  75	 117
  75	 118
  75	 119
  76	  79
  76	  83
  76	  88
  76	  91
  76	  92
  76	  93
  76	  95
  76	  96
  76	  98
  76	  99
  76	 100
  76	 101
  76	 103
  76	 104
  76	 107
  76	 110
  76	 113
  76	 114
  77	  83
  77	  86
  77	  89
  77	  90
  77	  91
  77	  92
  77	  96
  77	  99
  77	 100
  77	 105
  77	 106
  77	 110
  77	 111
  77	 112
  77	 113
  77	 118
  77	 119
  78	  80
  78	  85
  78	  88
  78	  90
  78	  94
  78	  95
  78	  97
  78	 100
  78	 103
  78	 104
  78	 106
  78	 108
  78	 109
  78	 111
  78	 113
  78	 114
  78	 116
  78	 117
  79	  80
  79	  85
  79	  89
  79	  91
  79	  92
  79	 100
  79	 102
  79	 106
  79	 107
  79	 111
  79	 113
  79	 116
  79	 117
  80	  83
  80	  85
  80	  94
  80	  98
  80	  99
  80	 100
  80	 104
  80	 105
  80	 107
  80	 108
  80	 110
  80	 111
  80	 112
  80	 113
  80	 116
  80	 117
  80	 118
  81	  82
  81	  85
  81	  86
  81	  88
  81	  89
  81	  95
  81	 101
  81	 102
  81	 103
  81	 104
  81	 105
  81	 106
  81	 107
  81	 109
  81	 110
  81	 112
  81	 113
  81	 115
  81	 119
  82	  89
  82	  93
  82	  94
  82	  95
  82	  98
  82	  99
  82	 100
  82	 101
  82	 105
  82	 107
  82	 108
  82	 117
  82	 118
  83	  84
  83	  85
  83	  91
  83	  92
  83	  95
  83	  97
  83	  98
  83	 106
  83	 108
  83	 114
  83	 115
  83	 118
  83	 119
  84	  85
  84	  88
  84	  91
  84	  93
  84	  95
  84	  97
  84	  99
  84	 100
  84	 104
  84	 105
  84	 106
  84	 108
  84	 113
  84	 117
  84	 118
  84	 119
  85	  86
  85	  87
  85	  88
  85	  90
  85	  91
  85	  92
  85	  93
  85	  95
  85	  96
  85	  97
  85	  98
  85	 100
  85	 103
  85	 106
  85	 107
  85	 108
  85	 110
  85	 113
  85	 117
  85	 118
  86	  88
  86	  92
  86	  93
  86	  95
  86	  98
  86	 104
  86	 105
  86	 106
  86	 107
  86	 112
  86	 114
  87	  89
  87	  96
  87	  97
  87	  99
  87	 103
  87	 104
  87	 106
  87	 108
  87	 109
  87	 112
  87	 113
  87	 114
  88	  89
  88	  91
  88	  95
  88	  98
  88	 100
  88	 105
  88	 106
  88	 112
  88	 113
  88	 116
  88	 118
  89	  90
  89	  93
  89	  94
  89	  95
  89	  98
  89	  99
  89	 101
  89	 104
  89	 107
  89	 109
  89	 112
  89	 119
  90	  92
  90	 102
  90	 103
  90	 110
  90	 112
  90	 114
  91	  92
  91	  94
  91	  97
  91	  98
  91	 102
  91	 105
  91	 106
  91	 110
  91	 115
  91	 116
  92	  97
  92	  99
  92	 100
  92	 103
  92	 104
  92	 105
  92	 108
  92	 112
  92	 113
  92	 118
  93	 100
  93	 102
  93	 108
  93	 109
  93	 111
  93	 115
  93	 118
  94	  97
  94	  98
  94	 100
  94	 103
  94	 110
  94	 114
  94	 116
  94	 117
  95	  96
  95	  99
  95	 105
  95	 106
  95	 110
  95	 112
  95	 117
  96	 103
  96	 109
  96	 110
  96	 112
  96	 116
  96	 117
  96	 118
  96	 119
  97	  99
  97	 102
  97	 105
  97	 106
  97	 110
  97	 111
  97	 117
  98	 100
  98	 102
  98	 104
  98	 106
  98	 107
  98	 109
  98	 110
  98	 111
  98	 116
  98	 119
  99	 101
  99	 102
  99	 103
  99	 104
  99	 106
  99	 107
  99	 112
  99	 114
  99	 115
  99	 117
 100	 102
 100	 104
 100	 107
 100	 110
 100	 111
 100	 112
 100	 113
 100	 114
 100	 115
 101	 105
 101	 106
 101	 107
 101	 113
 101	 114
 101	 115
 101	 116
 101	 119
 102	 103
 102	 105
 102	 106
 102	 107
 102	 108
 102	 110
 102	 111
 102	 113
 102	 115
 102	 116
 102	 118
 102	 119
 103	 106
 103	 109
 103	 112
 103	 114
 103	 116
 103	 117
 103	 118
 104	 105
 104	 108
 104	 109
 104	 110
 104	 111
 104	 119
 105	 106
 105	 107
 105	 108
 105	 110
 105	 111
 105	 116
 106	 107
 106	 109
 106	 110
 106	 111
 106	 114
 106	 118
 106	 119
 107	 108
 107	 110
 107	 113
 107	 114
 107	 115
 107	 117
 108	 111
 108	 112
 108	 113
 108	 115
 108	 117
 109	 110
 109	 111
 109	 112
 109	 118
 110	 113
 110	 115
 111	 112
 111	 114
 111	 115
 111	 117
 112	 113
 113	 117
 113	 119
 114	 115
 114	 116
 114	 118
 114	 119
 115	 116
 115	 117
 115	 118
 116	 117
 116	 118
 116	 119
 117	 118
;
